\Problem name: ilog.cplex

Minimize
 obj: 7.89088802591486 IloX1 + 296.478450520773 IloX2 + 201.629804339305 IloX3
      + 520.810220210336 IloX4 + 587.665613510749 IloX5
      + 279.218039426591 IloX6 + 689.523503397469 IloX7
      + 125.117004163875 IloX8 + 556.305521825577 IloX9
      + 7.89088802591486 IloX10 + 304.366073303215 IloX12
      + 207.557500752852 IloX13 + 528.122299662159 IloX14
      + 595.530126975581 IloX15 + 283.336944004718 IloX16
      + 696.711340852902 IloX17 + 130.71263454638 IloX18
      + 560.581729844424 IloX19 + 296.478450520773 IloX20
      + 304.366073303215 IloX21 + 193.558567033102 IloX23
      + 264.616391916657 IloX24 + 292.031858228928 IloX25
      + 277.547822887895 IloX26 + 431.886728060538 IloX27
      + 224.880897020495 IloX28 + 460.687102474673 IloX29
      + 201.629804339305 IloX30 + 207.557500752852 IloX31
      + 193.558567033102 IloX32 + 338.062943265591 IloX34
      + 444.464741081922 IloX35 + 105.09843731667 IloX36
      + 500.96003553841 IloX37 + 77.3344708430208 IloX38
      + 365.978524862411 IloX39 + 520.810220210336 IloX40
      + 528.122299662159 IloX41 + 264.616391916657 IloX42
      + 338.062943265591 IloX43 + 181.350475670072 IloX45
      + 341.855905321043 IloX46 + 170.36098146956 IloX47
      + 409.516384861944 IloX48 + 328.172357694182 IloX49
      + 587.665613510749 IloX50 + 595.530126975581 IloX51
      + 292.031858228928 IloX52 + 444.464741081922 IloX53
      + 181.350475670072 IloX54 + 482.460445975413 IloX56
      + 241.29912418846 IloX57 + 500.662463256674 IloX58
      + 509.509087092017 IloX59 + 279.218039426591 IloX60
      + 283.336944004718 IloX61 + 277.547822887895 IloX62
      + 105.09843731667 IloX63 + 341.855905321043 IloX64
      + 482.460445975413 IloX65 + 486.728811856572 IloX67
      + 159.914801414949 IloX68 + 277.332982011698 IloX69
      + 689.523503397469 IloX70 + 696.711340852902 IloX71
      + 431.886728060538 IloX72 + 500.96003553841 IloX73
      + 170.36098146956 IloX74 + 241.29912418846 IloX75
      + 486.728811856572 IloX76 + 575.032338947658 IloX78
      + 376.399106651311 IloX79 + 125.117004163875 IloX80
      + 130.71263454638 IloX81 + 224.880897020495 IloX82
      + 77.3344708430208 IloX83 + 409.516384861944 IloX84
      + 500.662463256674 IloX85 + 159.914801414949 IloX86
      + 575.032338947658 IloX87 + 434.378302557813 IloX89
      + 556.305521825577 IloX90 + 560.581729844424 IloX91
      + 460.687102474673 IloX92 + 365.978524862411 IloX93
      + 328.172357694182 IloX94 + 509.509087092017 IloX95
      + 277.332982011698 IloX96 + 376.399106651311 IloX97
      + 434.378302557813 IloX98 + 0 IloX100
Subject To
 IloC0:  IloX0 + IloX1 + IloX2 + IloX3 + IloX4 + IloX5 + IloX6 + IloX7 + IloX8
         + IloX9  = 1
 IloC1:  IloX10 + IloX11 + IloX12 + IloX13 + IloX14 + IloX15 + IloX16 + IloX17
         + IloX18 + IloX19  = 1
 IloC2:  IloX20 + IloX21 + IloX22 + IloX23 + IloX24 + IloX25 + IloX26 + IloX27
         + IloX28 + IloX29  = 1
 IloC3:  IloX30 + IloX31 + IloX32 + IloX33 + IloX34 + IloX35 + IloX36 + IloX37
         + IloX38 + IloX39  = 1
 IloC4:  IloX40 + IloX41 + IloX42 + IloX43 + IloX44 + IloX45 + IloX46 + IloX47
         + IloX48 + IloX49  = 1
 IloC5:  IloX50 + IloX51 + IloX52 + IloX53 + IloX54 + IloX55 + IloX56 + IloX57
         + IloX58 + IloX59  = 1
 IloC6:  IloX60 + IloX61 + IloX62 + IloX63 + IloX64 + IloX65 + IloX66 + IloX67
         + IloX68 + IloX69  = 1
 IloC7:  IloX70 + IloX71 + IloX72 + IloX73 + IloX74 + IloX75 + IloX76 + IloX77
         + IloX78 + IloX79  = 1
 IloC8:  IloX80 + IloX81 + IloX82 + IloX83 + IloX84 + IloX85 + IloX86 + IloX87
         + IloX88 + IloX89  = 1
 IloC9:  IloX90 + IloX91 + IloX92 + IloX93 + IloX94 + IloX95 + IloX96 + IloX97
         + IloX98 + IloX99  = 1
 IloC10: IloX0 + IloX10 + IloX20 + IloX30 + IloX40 + IloX50 + IloX60 + IloX70
         + IloX80 + IloX90  = 1
 IloC11: IloX1 + IloX11 + IloX21 + IloX31 + IloX41 + IloX51 + IloX61 + IloX71
         + IloX81 + IloX91  = 1
 IloC12: IloX2 + IloX12 + IloX22 + IloX32 + IloX42 + IloX52 + IloX62 + IloX72
         + IloX82 + IloX92  = 1
 IloC13: IloX3 + IloX13 + IloX23 + IloX33 + IloX43 + IloX53 + IloX63 + IloX73
         + IloX83 + IloX93  = 1
 IloC14: IloX4 + IloX14 + IloX24 + IloX34 + IloX44 + IloX54 + IloX64 + IloX74
         + IloX84 + IloX94  = 1
 IloC15: IloX5 + IloX15 + IloX25 + IloX35 + IloX45 + IloX55 + IloX65 + IloX75
         + IloX85 + IloX95  = 1
 IloC16: IloX6 + IloX16 + IloX26 + IloX36 + IloX46 + IloX56 + IloX66 + IloX76
         + IloX86 + IloX96  = 1
 IloC17: IloX7 + IloX17 + IloX27 + IloX37 + IloX47 + IloX57 + IloX67 + IloX77
         + IloX87 + IloX97  = 1
 IloC18: IloX8 + IloX18 + IloX28 + IloX38 + IloX48 + IloX58 + IloX68 + IloX78
         + IloX88 + IloX98  = 1
 IloC19: IloX9 + IloX19 + IloX29 + IloX39 + IloX49 + IloX59 + IloX69 + IloX79
         + IloX89 + IloX99  = 1
 IloC20: 10 IloX12 + IloX101 - IloX102 <= 9
 IloC21: 10 IloX13 + IloX101 - IloX103 <= 9
 IloC22: 10 IloX14 + IloX101 - IloX104 <= 9
 IloC23: 10 IloX15 + IloX101 - IloX105 <= 9
 IloC24: 10 IloX16 + IloX101 - IloX106 <= 9
 IloC25: 10 IloX17 + IloX101 - IloX107 <= 9
 IloC26: 10 IloX18 + IloX101 - IloX108 <= 9
 IloC27: 10 IloX19 + IloX101 - IloX109 <= 9
 IloC28: 10 IloX21 - IloX101 + IloX102 <= 9
 IloC29: 10 IloX23 + IloX102 - IloX103 <= 9
 IloC30: 10 IloX24 + IloX102 - IloX104 <= 9
 IloC31: 10 IloX25 + IloX102 - IloX105 <= 9
 IloC32: 10 IloX26 + IloX102 - IloX106 <= 9
 IloC33: 10 IloX27 + IloX102 - IloX107 <= 9
 IloC34: 10 IloX28 + IloX102 - IloX108 <= 9
 IloC35: 10 IloX29 + IloX102 - IloX109 <= 9
 IloC36: 10 IloX31 - IloX101 + IloX103 <= 9
 IloC37: 10 IloX32 - IloX102 + IloX103 <= 9
 IloC38: 10 IloX34 + IloX103 - IloX104 <= 9
 IloC39: 10 IloX35 + IloX103 - IloX105 <= 9
 IloC40: 10 IloX36 + IloX103 - IloX106 <= 9
 IloC41: 10 IloX37 + IloX103 - IloX107 <= 9
 IloC42: 10 IloX38 + IloX103 - IloX108 <= 9
 IloC43: 10 IloX39 + IloX103 - IloX109 <= 9
 IloC44: 10 IloX41 - IloX101 + IloX104 <= 9
 IloC45: 10 IloX42 - IloX102 + IloX104 <= 9
 IloC46: 10 IloX43 - IloX103 + IloX104 <= 9
 IloC47: 10 IloX45 + IloX104 - IloX105 <= 9
 IloC48: 10 IloX46 + IloX104 - IloX106 <= 9
 IloC49: 10 IloX47 + IloX104 - IloX107 <= 9
 IloC50: 10 IloX48 + IloX104 - IloX108 <= 9
 IloC51: 10 IloX49 + IloX104 - IloX109 <= 9
 IloC52: 10 IloX51 - IloX101 + IloX105 <= 9
 IloC53: 10 IloX52 - IloX102 + IloX105 <= 9
 IloC54: 10 IloX53 - IloX103 + IloX105 <= 9
 IloC55: 10 IloX54 - IloX104 + IloX105 <= 9
 IloC56: 10 IloX56 + IloX105 - IloX106 <= 9
 IloC57: 10 IloX57 + IloX105 - IloX107 <= 9
 IloC58: 10 IloX58 + IloX105 - IloX108 <= 9
 IloC59: 10 IloX59 + IloX105 - IloX109 <= 9
 IloC60: 10 IloX61 - IloX101 + IloX106 <= 9
 IloC61: 10 IloX62 - IloX102 + IloX106 <= 9
 IloC62: 10 IloX63 - IloX103 + IloX106 <= 9
 IloC63: 10 IloX64 - IloX104 + IloX106 <= 9
 IloC64: 10 IloX65 - IloX105 + IloX106 <= 9
 IloC65: 10 IloX67 + IloX106 - IloX107 <= 9
 IloC66: 10 IloX68 + IloX106 - IloX108 <= 9
 IloC67: 10 IloX69 + IloX106 - IloX109 <= 9
 IloC68: 10 IloX71 - IloX101 + IloX107 <= 9
 IloC69: 10 IloX72 - IloX102 + IloX107 <= 9
 IloC70: 10 IloX73 - IloX103 + IloX107 <= 9
 IloC71: 10 IloX74 - IloX104 + IloX107 <= 9
 IloC72: 10 IloX75 - IloX105 + IloX107 <= 9
 IloC73: 10 IloX76 - IloX106 + IloX107 <= 9
 IloC74: 10 IloX78 + IloX107 - IloX108 <= 9
 IloC75: 10 IloX79 + IloX107 - IloX109 <= 9
 IloC76: 10 IloX81 - IloX101 + IloX108 <= 9
 IloC77: 10 IloX82 - IloX102 + IloX108 <= 9
 IloC78: 10 IloX83 - IloX103 + IloX108 <= 9
 IloC79: 10 IloX84 - IloX104 + IloX108 <= 9
 IloC80: 10 IloX85 - IloX105 + IloX108 <= 9
 IloC81: 10 IloX86 - IloX106 + IloX108 <= 9
 IloC82: 10 IloX87 - IloX107 + IloX108 <= 9
 IloC83: 10 IloX89 + IloX108 - IloX109 <= 9
 IloC84: 10 IloX91 - IloX101 + IloX109 <= 9
 IloC85: 10 IloX92 - IloX102 + IloX109 <= 9
 IloC86: 10 IloX93 - IloX103 + IloX109 <= 9
 IloC87: 10 IloX94 - IloX104 + IloX109 <= 9
 IloC88: 10 IloX95 - IloX105 + IloX109 <= 9
 IloC89: 10 IloX96 - IloX106 + IloX109 <= 9
 IloC90: 10 IloX97 - IloX107 + IloX109 <= 9
 IloC91: 10 IloX98 - IloX108 + IloX109 <= 9
Bounds
      IloX0 = 0
 0 <= IloX1 <= 1
 0 <= IloX2 <= 1
 0 <= IloX3 <= 1
 0 <= IloX4 <= 1
 0 <= IloX5 <= 1
 0 <= IloX6 <= 1
 0 <= IloX7 <= 1
 0 <= IloX8 <= 1
 0 <= IloX9 <= 1
 0 <= IloX10 <= 1
      IloX11 = 0
 0 <= IloX12 <= 1
 0 <= IloX13 <= 1
 0 <= IloX14 <= 1
 0 <= IloX15 <= 1
 0 <= IloX16 <= 1
 0 <= IloX17 <= 1
 0 <= IloX18 <= 1
 0 <= IloX19 <= 1
 0 <= IloX20 <= 1
 0 <= IloX21 <= 1
      IloX22 = 0
 0 <= IloX23 <= 1
 0 <= IloX24 <= 1
 0 <= IloX25 <= 1
 0 <= IloX26 <= 1
 0 <= IloX27 <= 1
 0 <= IloX28 <= 1
 0 <= IloX29 <= 1
 0 <= IloX30 <= 1
 0 <= IloX31 <= 1
 0 <= IloX32 <= 1
      IloX33 = 0
 0 <= IloX34 <= 1
 0 <= IloX35 <= 1
 0 <= IloX36 <= 1
 0 <= IloX37 <= 1
 0 <= IloX38 <= 1
 0 <= IloX39 <= 1
 0 <= IloX40 <= 1
 0 <= IloX41 <= 1
 0 <= IloX42 <= 1
 0 <= IloX43 <= 1
      IloX44 = 0
 0 <= IloX45 <= 1
 0 <= IloX46 <= 1
 0 <= IloX47 <= 1
 0 <= IloX48 <= 1
 0 <= IloX49 <= 1
 0 <= IloX50 <= 1
 0 <= IloX51 <= 1
 0 <= IloX52 <= 1
 0 <= IloX53 <= 1
 0 <= IloX54 <= 1
      IloX55 = 0
 0 <= IloX56 <= 1
 0 <= IloX57 <= 1
 0 <= IloX58 <= 1
 0 <= IloX59 <= 1
 0 <= IloX60 <= 1
 0 <= IloX61 <= 1
 0 <= IloX62 <= 1
 0 <= IloX63 <= 1
 0 <= IloX64 <= 1
 0 <= IloX65 <= 1
      IloX66 = 0
 0 <= IloX67 <= 1
 0 <= IloX68 <= 1
 0 <= IloX69 <= 1
 0 <= IloX70 <= 1
 0 <= IloX71 <= 1
 0 <= IloX72 <= 1
 0 <= IloX73 <= 1
 0 <= IloX74 <= 1
 0 <= IloX75 <= 1
 0 <= IloX76 <= 1
      IloX77 = 0
 0 <= IloX78 <= 1
 0 <= IloX79 <= 1
 0 <= IloX80 <= 1
 0 <= IloX81 <= 1
 0 <= IloX82 <= 1
 0 <= IloX83 <= 1
 0 <= IloX84 <= 1
 0 <= IloX85 <= 1
 0 <= IloX86 <= 1
 0 <= IloX87 <= 1
      IloX88 = 0
 0 <= IloX89 <= 1
 0 <= IloX90 <= 1
 0 <= IloX91 <= 1
 0 <= IloX92 <= 1
 0 <= IloX93 <= 1
 0 <= IloX94 <= 1
 0 <= IloX95 <= 1
 0 <= IloX96 <= 1
 0 <= IloX97 <= 1
 0 <= IloX98 <= 1
      IloX99 = 0
 0 <= IloX100 <= 8
 0 <= IloX101 <= 8
 0 <= IloX102 <= 8
 0 <= IloX103 <= 8
 0 <= IloX104 <= 8
 0 <= IloX105 <= 8
 0 <= IloX106 <= 8
 0 <= IloX107 <= 8
 0 <= IloX108 <= 8
 0 <= IloX109 <= 8
Generals
 IloX0  IloX1  IloX2  IloX3  IloX4  IloX5  IloX6  IloX7  IloX8  IloX9  IloX10 
 IloX11  IloX12  IloX13  IloX14  IloX15  IloX16  IloX17  IloX18  IloX19 
 IloX20  IloX21  IloX22  IloX23  IloX24  IloX25  IloX26  IloX27  IloX28 
 IloX29  IloX30  IloX31  IloX32  IloX33  IloX34  IloX35  IloX36  IloX37 
 IloX38  IloX39  IloX40  IloX41  IloX42  IloX43  IloX44  IloX45  IloX46 
 IloX47  IloX48  IloX49  IloX50  IloX51  IloX52  IloX53  IloX54  IloX55 
 IloX56  IloX57  IloX58  IloX59  IloX60  IloX61  IloX62  IloX63  IloX64 
 IloX65  IloX66  IloX67  IloX68  IloX69  IloX70  IloX71  IloX72  IloX73 
 IloX74  IloX75  IloX76  IloX77  IloX78  IloX79  IloX80  IloX81  IloX82 
 IloX83  IloX84  IloX85  IloX86  IloX87  IloX88  IloX89  IloX90  IloX91 
 IloX92  IloX93  IloX94  IloX95  IloX96  IloX97  IloX98  IloX99  IloX100 
 IloX101  IloX102  IloX103  IloX104  IloX105  IloX106  IloX107  IloX108 
 IloX109 
End
